Route #1: 253 254 255 256 257 258 199 200 259 260 261 262 263 264 265 266 267 268
Route #2: 270 271 272 273 274 275 214 215 276 277 278 279 280 281 282 283 284 285
Route #3: 287 288 289 290 291 292 229 230 293 294 295 296 297 298 299 300 301 302
Route #4: 304 305 306 307 308 309 244 245 310 311 312 313 314 315 316 317 318 319
Route #5: 208 207 269 206 194 195 196 197 198 147 201 202 203 204 205 151
Route #6: 223 222 286 221 209 210 211 212 213 160 216 217 218 219 220 164
Route #7: 238 237 303 236 224 225 226 227 228 173 231 232 233 234 235 177
Route #8: 193 252 320 251 239 240 241 242 243 186 246 247 248 249 250 190
Route #9: 141 142 143 144 145 146 148 149 150 101 102 103 104
Route #10: 154 155 156 157 158 159 161 162 163 112 113 114 115
Route #11: 167 168 169 170 171 172 174 175 176 123 124 125 126
Route #12: 180 181 182 183 184 185 187 188 189 134 135 136 137
Route #13: 61 97 98 99 100 65 64 63 62 34
Route #14: 38 68 67 66 105 106 152 153 107 69
Route #15: 70 108 109 110 111 74 73 72 71 41
Route #16: 45 77 76 75 116 117 165 166 118 78
Route #17: 79 119 120 121 122 83 82 81 80 48
Route #18: 52 86 85 84 127 128 178 179 129 87
Route #19: 88 130 131 132 133 92 91 90 89 55
Route #20: 59 95 94 93 138 139 191 192 140 96
Route #21: 33 60 30 56 57 58 31
Route #22: 14 15 35 36 37 39 40
Route #23: 19 20 42 43 44 46 47
Route #24: 24 25 49 50 51 53 54
Route #25: 26 27 28 29
Route #26: 2 16 17 18
Route #27: 5 21 22 23
Route #28: 1 13 32 11
Route #29: 7 8 9
Route #30: 3 4 6
Route #31: 10 12
Cost 1211.258181849414